ATOMIC_SPECIES
Ti  47.8670 Ti_ONCV_PBE-1.2.upf upf201
Al  26.9815 Al.upf upf201
C  12.0110 C.upf upf201

NUMERICAL_ORBITAL
Ti_gga_7au_100Ry_4s2p2d1f.orb
Al_gga_8au_100Ry_2s2p1d.orb
C_gga_8au_100Ry_2s2p1d.orb

LATTICE_CONSTANT
1.8897261258

LATTICE_VECTORS
        6.1345183864        0.0000000000       -0.0000000000
       -3.0672591932        5.3126487626        0.0000000000
       -0.0000000000        0.0000000000       41.2534060142

ATOMIC_POSITIONS
Direct

Ti #label
0.0000   #magnetism
48 #number of atoms
        0.3333331551        0.1666665750        0.1944899685 m 1 1 1
        0.1666665897        0.3333331843        0.0278232600 m 1 1 1
        0.1666665750        0.3333331551        0.1388435316 m 1 1 1
        0.3333331843        0.1666665897        0.3055101740 m 1 1 1
        0.3333331843        0.1666665897        0.5278231593 m 1 1 1
        0.1666665920        0.3333331891        0.3611567123 m 1 1 1
        0.1666665920        0.3333331891        0.4721766210 m 1 1 1
        0.3333331551        0.1666665750        0.6388433648 m 1 1 1
        0.3333331891        0.1666665920        0.8611566461 m 1 1 1
        0.1666665750        0.3333331551        0.6944898017 m 1 1 1
        0.1666665897        0.3333331843        0.8055100734 m 1 1 1
        0.3333331891        0.1666665920        0.9721766872 m 1 1 1
        0.3333333350        0.6666666650        0.1944899440 m 1 1 1
        0.1666665897        0.8333334103        0.0278232600 m 1 1 1
        0.1666665750        0.8333334250        0.1388435316 m 1 1 1
        0.3333333350        0.6666666650        0.3055102037 m 1 1 1
        0.3333333350        0.6666666650        0.5278231296 m 1 1 1
        0.1666665920        0.8333334080        0.3611567123 m 1 1 1
        0.1666665920        0.8333334080        0.4721766210 m 1 1 1
        0.3333333350        0.6666666650        0.6388433894 m 1 1 1
        0.3333333350        0.6666666650        0.8611566438 m 1 1 1
        0.1666665750        0.8333334250        0.6944898017 m 1 1 1
        0.1666665897        0.8333334103        0.8055100734 m 1 1 1
        0.3333333350        0.6666666650        0.9721766896 m 1 1 1
        0.8333334250        0.1666665750        0.1944899685 m 1 1 1
        0.6666666650        0.3333333350        0.0278232303 m 1 1 1
        0.6666666650        0.3333333350        0.1388435562 m 1 1 1
        0.8333334103        0.1666665897        0.3055101740 m 1 1 1
        0.8333334103        0.1666665897        0.5278231593 m 1 1 1
        0.6666666650        0.3333333350        0.3611567100 m 1 1 1
        0.6666666650        0.3333333350        0.4721766234 m 1 1 1
        0.8333334250        0.1666665750        0.6388433648 m 1 1 1
        0.8333334080        0.1666665920        0.8611566461 m 1 1 1
        0.6666666650        0.3333333350        0.6944897771 m 1 1 1
        0.6666666650        0.3333333350        0.8055101031 m 1 1 1
        0.8333334080        0.1666665920        0.9721766872 m 1 1 1
        0.8333334250        0.6666668449        0.1944899685 m 1 1 1
        0.6666668157        0.8333334103        0.0278232600 m 1 1 1
        0.6666668449        0.8333334250        0.1388435316 m 1 1 1
        0.8333334103        0.6666668157        0.3055101740 m 1 1 1
        0.8333334103        0.6666668157        0.5278231593 m 1 1 1
        0.6666668109        0.8333334080        0.3611567123 m 1 1 1
        0.6666668109        0.8333334080        0.4721766210 m 1 1 1
        0.8333334250        0.6666668449        0.6388433648 m 1 1 1
        0.8333334080        0.6666668109        0.8611566461 m 1 1 1
        0.6666668449        0.8333334250        0.6944898017 m 1 1 1
        0.6666668157        0.8333334103        0.8055100734 m 1 1 1
        0.8333334080        0.6666668109        0.9721766872 m 1 1 1

Al #label
0.0000   #magnetism
24 #number of atoms
        0.3333333351        0.1666666650        0.0833332796 m 1 1 1
        0.1666666650        0.3333333351        0.2499999495 m 1 1 1
        0.3333333419        0.1666666685        0.4166666667 m 1 1 1
        0.1666666650        0.3333333351        0.5833333839 m 1 1 1
        0.3333333351        0.1666666650        0.7500000537 m 1 1 1
        0.1666666685        0.3333333419        0.9166666667 m 1 1 1
        0.3333333350        0.6666666650        0.0833332805 m 1 1 1
        0.1666666650        0.8333333350        0.2499999495 m 1 1 1
        0.3333333350        0.6666666650        0.4166666667 m 1 1 1
        0.1666666650        0.8333333350        0.5833333839 m 1 1 1
        0.3333333350        0.6666666650        0.7500000528 m 1 1 1
        0.1666666685        0.8333333315        0.9166666667 m 1 1 1
        0.8333333350        0.1666666650        0.0833332796 m 1 1 1
        0.6666666650        0.3333333350        0.2499999485 m 1 1 1
        0.8333333315        0.1666666685        0.4166666667 m 1 1 1
        0.6666666650        0.3333333350        0.5833333848 m 1 1 1
        0.8333333350        0.1666666650        0.7500000537 m 1 1 1
        0.6666666650        0.3333333350        0.9166666667 m 1 1 1
        0.8333333350        0.6666666649        0.0833332796 m 1 1 1
        0.6666666649        0.8333333350        0.2499999495 m 1 1 1
        0.8333333315        0.6666666581        0.4166666667 m 1 1 1
        0.6666666649        0.8333333350        0.5833333839 m 1 1 1
        0.8333333350        0.6666666649        0.7500000537 m 1 1 1
        0.6666666581        0.8333333315        0.9166666667 m 1 1 1

C #label
0.0000   #magnetism
24 #number of atoms
        0.0000000000        0.0000000000        0.1666666023 m 1 1 1
        0.0000000000        0.0000000000        0.9999999686 m 1 1 1
        0.0000000000        0.0000000000        0.5000000330 m 1 1 1
        0.0000000000        0.0000000000        0.3333333004 m 1 1 1
        0.0000000000        0.0000000000        0.8333333648 m 1 1 1
        0.0000000000        0.0000000000        0.6666667311 m 1 1 1
        0.0000000000        0.5000000000        0.1666666023 m 1 1 1
        0.0000000024        0.5000000012        0.9999999675 m 1 1 1
        0.9999999976        0.4999999988        0.5000000319 m 1 1 1
        0.9999999976        0.4999999988        0.3333333015 m 1 1 1
        0.0000000024        0.5000000012        0.8333333659 m 1 1 1
        0.0000000000        0.5000000000        0.6666667310 m 1 1 1
        0.5000000000        1.0000000000        0.1666666023 m 1 1 1
        0.4999999988        0.9999999976        0.9999999675 m 1 1 1
        0.5000000012        0.0000000024        0.5000000319 m 1 1 1
        0.5000000012        0.0000000024        0.3333333015 m 1 1 1
        0.4999999988        0.9999999976        0.8333333659 m 1 1 1
        0.5000000000        1.0000000000        0.6666667310 m 1 1 1
        0.5000000000        0.5000000000        0.1666666023 m 1 1 1
        0.4999999988        0.5000000012        0.9999999675 m 1 1 1
        0.5000000012        0.4999999988        0.5000000319 m 1 1 1
        0.5000000012        0.4999999988        0.3333333015 m 1 1 1
        0.4999999988        0.5000000012        0.8333333659 m 1 1 1
        0.5000000000        0.5000000000        0.6666667310 m 1 1 1
