ATOMIC_SPECIES
Ti  47.8670 Ti_ONCV_PBE-1.2.upf upf201
Al  26.9815 Al.upf upf201
C  12.0110 C.upf upf201

NUMERICAL_ORBITAL
Ti_gga_7au_100Ry_4s2p2d1f.orb
Al_gga_8au_100Ry_2s2p1d.orb
C_gga_8au_100Ry_2s2p1d.orb

LATTICE_CONSTANT
1.8897261258

LATTICE_VECTORS
        9.2024331715        0.0000000000        0.0000000000
       -4.6012165857        7.9695409031        0.0000000000
        0.0000000000       -0.0000000000       41.2582737916

ATOMIC_POSITIONS
Direct

Ti #label
0.0000   #magnetism
108 #number of atoms
        0.2222221992        0.1111110979        0.1944720860 m 1 1 1
        0.1111110979        0.2222221992        0.0278053941 m 1 1 1
        0.1111110979        0.2222221992        0.1388612929 m 1 1 1
        0.2222221992        0.1111110979        0.3055279695 m 1 1 1
        0.2222221992        0.1111110979        0.5278053638 m 1 1 1
        0.1111110979        0.2222221991        0.3611388692 m 1 1 1
        0.1111110979        0.2222221991        0.4721944641 m 1 1 1
        0.2222221992        0.1111110979        0.6388612474 m 1 1 1
        0.2222221991        0.1111110979        0.8611388540 m 1 1 1
        0.1111110979        0.2222221992        0.6944720404 m 1 1 1
        0.1111110979        0.2222221992        0.8055279393 m 1 1 1
        0.2222221991        0.1111110979        0.9721944794 m 1 1 1
        0.2222222169        0.4444444305        0.1944720887 m 1 1 1
        0.1111110988        0.5555555511        0.0278053945 m 1 1 1
        0.1111110988        0.5555555511        0.1388612925 m 1 1 1
        0.2222222169        0.4444444304        0.3055279668 m 1 1 1
        0.2222222169        0.4444444304        0.5278053666 m 1 1 1
        0.1111110987        0.5555555510        0.3611388696 m 1 1 1
        0.1111110987        0.5555555510        0.4721944637 m 1 1 1
        0.2222222169        0.4444444305        0.6388612446 m 1 1 1
        0.2222222169        0.4444444304        0.8611388567 m 1 1 1
        0.1111110988        0.5555555511        0.6944720408 m 1 1 1
        0.1111110988        0.5555555511        0.8055279388 m 1 1 1
        0.2222222169        0.4444444304        0.9721944766 m 1 1 1
        0.2222222169        0.7777777831        0.1944720887 m 1 1 1
        0.1111110979        0.8888889021        0.0278053941 m 1 1 1
        0.1111110979        0.8888889021        0.1388612929 m 1 1 1
        0.2222222169        0.7777777831        0.3055279668 m 1 1 1
        0.2222222169        0.7777777831        0.5278053666 m 1 1 1
        0.1111110979        0.8888889021        0.3611388692 m 1 1 1
        0.1111110979        0.8888889021        0.4721944641 m 1 1 1
        0.2222222169        0.7777777831        0.6388612446 m 1 1 1
        0.2222222169        0.7777777831        0.8611388567 m 1 1 1
        0.1111110979        0.8888889021        0.6944720404 m 1 1 1
        0.1111110979        0.8888889021        0.8055279393 m 1 1 1
        0.2222222169        0.7777777831        0.9721944766 m 1 1 1
        0.5555555511        0.1111110988        0.1944720864 m 1 1 1
        0.4444444304        0.2222222169        0.0278053968 m 1 1 1
        0.4444444304        0.2222222169        0.1388612902 m 1 1 1
        0.5555555511        0.1111110988        0.3055279691 m 1 1 1
        0.5555555511        0.1111110988        0.5278053642 m 1 1 1
        0.4444444304        0.2222222169        0.3611388720 m 1 1 1
        0.4444444304        0.2222222169        0.4721944614 m 1 1 1
        0.5555555511        0.1111110988        0.6388612470 m 1 1 1
        0.5555555510        0.1111110987        0.8611388543 m 1 1 1
        0.4444444304        0.2222222169        0.6944720432 m 1 1 1
        0.4444444304        0.2222222169        0.8055279365 m 1 1 1
        0.5555555510        0.1111110987        0.9721944790 m 1 1 1
        0.5555555511        0.4444444489        0.1944720864 m 1 1 1
        0.4444444489        0.5555555511        0.0278053945 m 1 1 1
        0.4444444489        0.5555555511        0.1388612925 m 1 1 1
        0.5555555511        0.4444444489        0.3055279691 m 1 1 1
        0.5555555511        0.4444444489        0.5278053642 m 1 1 1
        0.4444444490        0.5555555510        0.3611388696 m 1 1 1
        0.4444444490        0.5555555510        0.4721944637 m 1 1 1
        0.5555555511        0.4444444489        0.6388612470 m 1 1 1
        0.5555555510        0.4444444490        0.8611388543 m 1 1 1
        0.4444444489        0.5555555511        0.6944720408 m 1 1 1
        0.4444444489        0.5555555511        0.8055279388 m 1 1 1
        0.5555555510        0.4444444490        0.9721944790 m 1 1 1
        0.5555555695        0.7777777831        0.1944720887 m 1 1 1
        0.4444444489        0.8888889012        0.0278053945 m 1 1 1
        0.4444444489        0.8888889012        0.1388612925 m 1 1 1
        0.5555555696        0.7777777831        0.3055279668 m 1 1 1
        0.5555555696        0.7777777831        0.5278053666 m 1 1 1
        0.4444444490        0.8888889013        0.3611388696 m 1 1 1
        0.4444444490        0.8888889013        0.4721944637 m 1 1 1
        0.5555555695        0.7777777831        0.6388612446 m 1 1 1
        0.5555555696        0.7777777831        0.8611388567 m 1 1 1
        0.4444444489        0.8888889012        0.6944720408 m 1 1 1
        0.4444444489        0.8888889012        0.8055279388 m 1 1 1
        0.5555555696        0.7777777831        0.9721944766 m 1 1 1
        0.8888889021        0.1111110979        0.1944720860 m 1 1 1
        0.7777777831        0.2222222169        0.0278053968 m 1 1 1
        0.7777777831        0.2222222169        0.1388612902 m 1 1 1
        0.8888889021        0.1111110979        0.3055279695 m 1 1 1
        0.8888889021        0.1111110979        0.5278053638 m 1 1 1
        0.7777777831        0.2222222169        0.3611388720 m 1 1 1
        0.7777777831        0.2222222169        0.4721944614 m 1 1 1
        0.8888889021        0.1111110979        0.6388612474 m 1 1 1
        0.8888889021        0.1111110979        0.8611388540 m 1 1 1
        0.7777777831        0.2222222169        0.6944720432 m 1 1 1
        0.7777777831        0.2222222169        0.8055279365 m 1 1 1
        0.8888889021        0.1111110979        0.9721944794 m 1 1 1
        0.8888889012        0.4444444489        0.1944720864 m 1 1 1
        0.7777777831        0.5555555696        0.0278053968 m 1 1 1
        0.7777777831        0.5555555696        0.1388612902 m 1 1 1
        0.8888889012        0.4444444489        0.3055279691 m 1 1 1
        0.8888889012        0.4444444489        0.5278053642 m 1 1 1
        0.7777777831        0.5555555696        0.3611388720 m 1 1 1
        0.7777777831        0.5555555696        0.4721944614 m 1 1 1
        0.8888889012        0.4444444489        0.6388612470 m 1 1 1
        0.8888889013        0.4444444490        0.8611388543 m 1 1 1
        0.7777777831        0.5555555696        0.6944720432 m 1 1 1
        0.7777777831        0.5555555696        0.8055279365 m 1 1 1
        0.8888889013        0.4444444490        0.9721944790 m 1 1 1
        0.8888889021        0.7777778008        0.1944720860 m 1 1 1
        0.7777778008        0.8888889021        0.0278053941 m 1 1 1
        0.7777778008        0.8888889021        0.1388612929 m 1 1 1
        0.8888889021        0.7777778008        0.3055279695 m 1 1 1
        0.8888889021        0.7777778008        0.5278053638 m 1 1 1
        0.7777778009        0.8888889021        0.3611388692 m 1 1 1
        0.7777778009        0.8888889021        0.4721944641 m 1 1 1
        0.8888889021        0.7777778008        0.6388612474 m 1 1 1
        0.8888889021        0.7777778009        0.8611388540 m 1 1 1
        0.7777778008        0.8888889021        0.6944720404 m 1 1 1
        0.7777778008        0.8888889021        0.8055279393 m 1 1 1
        0.8888889021        0.7777778009        0.9721944794 m 1 1 1

Al #label
0.0000   #magnetism
54 #number of atoms
        0.2222222205        0.1111111086        0.0833333389 m 1 1 1
        0.1111111086        0.2222222205        0.2500000058 m 1 1 1
        0.2222222205        0.1111111086        0.4166666667 m 1 1 1
        0.1111111086        0.2222222205        0.5833333275 m 1 1 1
        0.2222222205        0.1111111086        0.7499999944 m 1 1 1
        0.1111111086        0.2222222205        0.9166666667 m 1 1 1
        0.2222222204        0.4444444376        0.0833333389 m 1 1 1
        0.1111111130        0.5555555581        0.2500000058 m 1 1 1
        0.2222222204        0.4444444375        0.4166666667 m 1 1 1
        0.1111111130        0.5555555581        0.5833333275 m 1 1 1
        0.2222222204        0.4444444376        0.7499999944 m 1 1 1
        0.1111111130        0.5555555581        0.9166666667 m 1 1 1
        0.2222222204        0.7777777796        0.0833333389 m 1 1 1
        0.1111111086        0.8888888914        0.2500000058 m 1 1 1
        0.2222222204        0.7777777796        0.4166666667 m 1 1 1
        0.1111111086        0.8888888914        0.5833333275 m 1 1 1
        0.2222222204        0.7777777796        0.7499999944 m 1 1 1
        0.1111111086        0.8888888914        0.9166666667 m 1 1 1
        0.5555555581        0.1111111130        0.0833333389 m 1 1 1
        0.4444444376        0.2222222204        0.2500000058 m 1 1 1
        0.5555555581        0.1111111130        0.4166666667 m 1 1 1
        0.4444444376        0.2222222204        0.5833333275 m 1 1 1
        0.5555555581        0.1111111130        0.7499999944 m 1 1 1
        0.4444444375        0.2222222204        0.9166666667 m 1 1 1
        0.5555555581        0.4444444419        0.0833333389 m 1 1 1
        0.4444444419        0.5555555581        0.2500000058 m 1 1 1
        0.5555555581        0.4444444419        0.4166666667 m 1 1 1
        0.4444444419        0.5555555581        0.5833333275 m 1 1 1
        0.5555555581        0.4444444419        0.7499999944 m 1 1 1
        0.4444444419        0.5555555581        0.9166666667 m 1 1 1
        0.5555555624        0.7777777796        0.0833333389 m 1 1 1
        0.4444444419        0.8888888870        0.2500000058 m 1 1 1
        0.5555555625        0.7777777796        0.4166666667 m 1 1 1
        0.4444444419        0.8888888870        0.5833333275 m 1 1 1
        0.5555555624        0.7777777796        0.7499999944 m 1 1 1
        0.4444444419        0.8888888870        0.9166666667 m 1 1 1
        0.8888888914        0.1111111086        0.0833333389 m 1 1 1
        0.7777777796        0.2222222204        0.2500000058 m 1 1 1
        0.8888888914        0.1111111086        0.4166666667 m 1 1 1
        0.7777777796        0.2222222204        0.5833333275 m 1 1 1
        0.8888888914        0.1111111086        0.7499999944 m 1 1 1
        0.7777777796        0.2222222204        0.9166666667 m 1 1 1
        0.8888888870        0.4444444419        0.0833333389 m 1 1 1
        0.7777777796        0.5555555624        0.2500000058 m 1 1 1
        0.8888888870        0.4444444419        0.4166666667 m 1 1 1
        0.7777777796        0.5555555624        0.5833333275 m 1 1 1
        0.8888888870        0.4444444419        0.7499999944 m 1 1 1
        0.7777777796        0.5555555625        0.9166666667 m 1 1 1
        0.8888888914        0.7777777795        0.0833333389 m 1 1 1
        0.7777777795        0.8888888914        0.2500000058 m 1 1 1
        0.8888888914        0.7777777795        0.4166666667 m 1 1 1
        0.7777777795        0.8888888914        0.5833333275 m 1 1 1
        0.8888888914        0.7777777795        0.7499999944 m 1 1 1
        0.7777777795        0.8888888914        0.9166666667 m 1 1 1

C #label
0.0000   #magnetism
54 #number of atoms
        0.0000000000        0.0000000000        0.1666666746 m 1 1 1
        0.0000000000        0.0000000000        0.0000000034 m 1 1 1
        0.0000000000        0.0000000000        0.4999999955 m 1 1 1
        0.0000000000        0.0000000000        0.3333333378 m 1 1 1
        0.0000000000        0.0000000000        0.8333333299 m 1 1 1
        0.0000000000        0.0000000000        0.6666666587 m 1 1 1
        0.0000000000        0.3333333220        0.1666666746 m 1 1 1
        0.0000000000        0.3333333220        0.0000000034 m 1 1 1
        1.0000000000        0.3333333220        0.4999999955 m 1 1 1
        1.0000000000        0.3333333220        0.3333333378 m 1 1 1
        0.0000000000        0.3333333220        0.8333333299 m 1 1 1
        0.0000000000        0.3333333220        0.6666666587 m 1 1 1
        0.0000000000        0.6666666780        0.1666666746 m 1 1 1
        0.0000000000        0.6666666780        0.0000000034 m 1 1 1
        1.0000000000        0.6666666780        0.4999999955 m 1 1 1
        1.0000000000        0.6666666780        0.3333333378 m 1 1 1
        0.0000000000        0.6666666780        0.8333333299 m 1 1 1
        0.0000000000        0.6666666780        0.6666666587 m 1 1 1
        0.3333333220        1.0000000000        0.1666666746 m 1 1 1
        0.3333333220        1.0000000000        0.0000000034 m 1 1 1
        0.3333333220        0.0000000000        0.4999999955 m 1 1 1
        0.3333333220        0.0000000000        0.3333333378 m 1 1 1
        0.3333333220        1.0000000000        0.8333333299 m 1 1 1
        0.3333333220        1.0000000000        0.6666666587 m 1 1 1
        0.3333333220        0.3333333220        0.1666666746 m 1 1 1
        0.3333333220        0.3333333220        0.0000000034 m 1 1 1
        0.3333333220        0.3333333220        0.4999999955 m 1 1 1
        0.3333333220        0.3333333220        0.3333333378 m 1 1 1
        0.3333333220        0.3333333220        0.8333333299 m 1 1 1
        0.3333333220        0.3333333220        0.6666666587 m 1 1 1
        0.3333333333        0.6666666667        0.1666666767 m 1 1 1
        0.3333333333        0.6666666667        0.0000000013 m 1 1 1
        0.3333333333        0.6666666667        0.4999999976 m 1 1 1
        0.3333333333        0.6666666667        0.3333333357 m 1 1 1
        0.3333333333        0.6666666667        0.8333333320 m 1 1 1
        0.3333333333        0.6666666667        0.6666666566 m 1 1 1
        0.6666666780        1.0000000000        0.1666666746 m 1 1 1
        0.6666666780        1.0000000000        0.0000000034 m 1 1 1
        0.6666666780        0.0000000000        0.4999999955 m 1 1 1
        0.6666666780        0.0000000000        0.3333333378 m 1 1 1
        0.6666666780        1.0000000000        0.8333333299 m 1 1 1
        0.6666666780        1.0000000000        0.6666666587 m 1 1 1
        0.6666666667        0.3333333333        0.1666666725 m 1 1 1
        0.6666666667        0.3333333333        0.0000000056 m 1 1 1
        0.6666666667        0.3333333333        0.4999999934 m 1 1 1
        0.6666666667        0.3333333333        0.3333333399 m 1 1 1
        0.6666666667        0.3333333333        0.8333333278 m 1 1 1
        0.6666666667        0.3333333333        0.6666666608 m 1 1 1
        0.6666666780        0.6666666780        0.1666666746 m 1 1 1
        0.6666666780        0.6666666780        0.0000000034 m 1 1 1
        0.6666666780        0.6666666780        0.4999999955 m 1 1 1
        0.6666666780        0.6666666780        0.3333333378 m 1 1 1
        0.6666666780        0.6666666780        0.8333333299 m 1 1 1
        0.6666666780        0.6666666780        0.6666666587 m 1 1 1
