ATOMIC_SPECIES
Si   28.085   Si_ONCV_PBE-1.0.upf

NUMERICAL_ORBITAL
Si_gga_8au_60Ry_2s2p1d.orb

LATTICE_CONSTANT
1.8897261258369282 

LATTICE_VECTORS
5.4307000000      0.0000000000      0.0000000000      
0.0000000000      5.4307000000      0.0000000000      
0.0000000000      0.0000000000      5.4307000000      

ATOMIC_POSITIONS
Direct
Si
0.0000000000
8
0.0000000000 0.0000000000 0.0000000000 1 1 1 mag 0.0 
0.0000000000 0.5000000000 0.5000000000 1 1 1 mag 0.0 
0.5000000000 0.0000000000 0.5000000000 1 1 1 mag 0.0 
0.5000000000 0.5000000000 0.0000000000 1 1 1 mag 0.0 
0.7500000000 0.7500000000 0.2500000000 1 1 1 mag 0.0 
0.7500000000 0.2500000000 0.7500000000 1 1 1 mag 0.0 
0.2500000000 0.7500000000 0.7500000000 1 1 1 mag 0.0 
0.2500000000 0.2500000000 0.2500000000 1 1 1 mag 0.0