INPUT_PARAMETERS
# Parameters (1.General)
suffix                  ABACUS
calculation             cell-relax  # 修改为 cell-relax 来优化晶胞
symmetry                1
pseudo_dir              /home/outis/Research/deepmd_learn/4_ASE-Abacus
orbital_dir             /home/outis/Research/deepmd_learn/4_ASE-Abacus
basis_type              lcao
ecutwfc                 100

# Parameters (2. SCF iterations)
scf_nmax                100
scf_thr                 1e-8

# Parameters (3. Solve KS equation)
ks_solver               genelpa
nspin                   2

# Parameters (4.Smearing)
smearing_method         gaussian
smearing_sigma          0.001    # ref: 0.00735Ry

# Parameters (5.Mixing)
mixing_type             broyden
mixing_beta             0.7
mixing_gg0              0

# Parameters (6.Relaxation)
force_thr_ev            0.01     # 原子力收敛阈值
stress_thr              0.5      # 内应力收敛阈值

# Parameters (7.Calculation control)
cal_stress              1
cal_force               1
out_stru                1
out_chg                 0
