ATOMIC_SPECIES
Ti  47.867        Ti_ONCV_PBE-1.2.upf
Al  26.9815385    Al.upf
C   12.011        C.upf

NUMERICAL_ORBITAL
Ti_gga_7au_100Ry_4s2p2d1f.orb
Al_gga_8au_100Ry_2s2p1d.orb
C_gga_8au_100Ry_2s2p1d.orb

LATTICE_CONSTANT
1.8897261258369282

LATTICE_VECTORS
6.13817498000000      0.00000000000000      0.00000000000000      
-3.0690874900000      5.31581546555400      0.00000000000000      
0.00000000000000      0.00000000000000      27.4727320000000      

ATOMIC_POSITIONS
Direct

Ti
0.00000000000000
32
0.33333333500000 0.16666666500000 0.29174300000000 1 1 1 mag 0.0 
0.16666666500000 0.33333333500000 0.04174300000000 1 1 1 mag 0.0 
0.16666666500000 0.33333333500000 0.20825700000000 1 1 1 mag 0.0 
0.33333333500000 0.16666666500000 0.45825700000000 1 1 1 mag 0.0 
0.33333333500000 0.16666666500000 0.79174300000000 1 1 1 mag 0.0 
0.16666666500000 0.33333333500000 0.54174300000000 1 1 1 mag 0.0 
0.16666666500000 0.33333333500000 0.70825700000000 1 1 1 mag 0.0 
0.33333333500000 0.16666666500000 0.95825700000000 1 1 1 mag 0.0 
0.33333333500000 0.66666666500000 0.29174300000000 1 1 1 mag 0.0 
0.16666666500000 0.83333333500000 0.04174300000000 1 1 1 mag 0.0 
0.16666666500000 0.83333333500000 0.20825700000000 1 1 1 mag 0.0 
0.33333333500000 0.66666666500000 0.45825700000000 1 1 1 mag 0.0 
0.33333333500000 0.66666666500000 0.79174300000000 1 1 1 mag 0.0 
0.16666666500000 0.83333333500000 0.54174300000000 1 1 1 mag 0.0 
0.16666666500000 0.83333333500000 0.70825700000000 1 1 1 mag 0.0 
0.33333333500000 0.66666666500000 0.95825700000000 1 1 1 mag 0.0 
0.83333333500000 0.16666666500000 0.29174300000000 1 1 1 mag 0.0 
0.66666666500000 0.33333333500000 0.04174300000000 1 1 1 mag 0.0 
0.66666666500000 0.33333333500000 0.20825700000000 1 1 1 mag 0.0 
0.83333333500000 0.16666666500000 0.45825700000000 1 1 1 mag 0.0 
0.83333333500000 0.16666666500000 0.79174300000000 1 1 1 mag 0.0 
0.66666666500000 0.33333333500000 0.54174300000000 1 1 1 mag 0.0 
0.66666666500000 0.33333333500000 0.70825700000000 1 1 1 mag 0.0 
0.83333333500000 0.16666666500000 0.95825700000000 1 1 1 mag 0.0 
0.83333333500000 0.66666666500000 0.29174300000000 1 1 1 mag 0.0 
0.66666666500000 0.83333333500000 0.04174300000000 1 1 1 mag 0.0 
0.66666666500000 0.83333333500000 0.20825700000000 1 1 1 mag 0.0 
0.83333333500000 0.66666666500000 0.45825700000000 1 1 1 mag 0.0 
0.83333333500000 0.66666666500000 0.79174300000000 1 1 1 mag 0.0 
0.66666666500000 0.83333333500000 0.54174300000000 1 1 1 mag 0.0 
0.66666666500000 0.83333333500000 0.70825700000000 1 1 1 mag 0.0 
0.83333333500000 0.66666666500000 0.95825700000000 1 1 1 mag 0.0 

Al
0.00000000000000
16
0.33333333500000 0.16666666500000 0.12500000000000 1 1 1 mag 0.0 
0.16666666500000 0.33333333500000 0.37500000000000 1 1 1 mag 0.0 
0.33333333500000 0.16666666500000 0.62500000000000 1 1 1 mag 0.0 
0.16666666500000 0.33333333500000 0.87500000000000 1 1 1 mag 0.0 
0.33333333500000 0.66666666500000 0.12500000000000 1 1 1 mag 0.0 
0.16666666500000 0.83333333500000 0.37500000000000 1 1 1 mag 0.0 
0.33333333500000 0.66666666500000 0.62500000000000 1 1 1 mag 0.0 
0.16666666500000 0.83333333500000 0.87500000000000 1 1 1 mag 0.0 
0.83333333500000 0.16666666500000 0.12500000000000 1 1 1 mag 0.0 
0.66666666500000 0.33333333500000 0.37500000000000 1 1 1 mag 0.0 
0.83333333500000 0.16666666500000 0.62500000000000 1 1 1 mag 0.0 
0.66666666500000 0.33333333500000 0.87500000000000 1 1 1 mag 0.0 
0.83333333500000 0.66666666500000 0.12500000000000 1 1 1 mag 0.0 
0.66666666500000 0.83333333500000 0.37500000000000 1 1 1 mag 0.0 
0.83333333500000 0.66666666500000 0.62500000000000 1 1 1 mag 0.0 
0.66666666500000 0.83333333500000 0.87500000000000 1 1 1 mag 0.0 

C
0.00000000000000
16
0.00000000000000 0.00000000000000 0.25000000000000 1 1 1 mag 0.0 
0.00000000000000 0.00000000000000 0.00000000000000 1 1 1 mag 0.0 
0.00000000000000 0.00000000000000 0.75000000000000 1 1 1 mag 0.0 
0.00000000000000 0.00000000000000 0.50000000000000 1 1 1 mag 0.0 
0.00000000000000 0.50000000000000 0.25000000000000 1 1 1 mag 0.0 
0.00000000000000 0.50000000000000 0.00000000000000 1 1 1 mag 0.0 
0.00000000000000 0.50000000000000 0.75000000000000 1 1 1 mag 0.0 
0.00000000000000 0.50000000000000 0.50000000000000 1 1 1 mag 0.0 
0.50000000000000 0.00000000000000 0.25000000000000 1 1 1 mag 0.0 
0.50000000000000 0.00000000000000 0.00000000000000 1 1 1 mag 0.0 
0.50000000000000 0.00000000000000 0.75000000000000 1 1 1 mag 0.0 
0.50000000000000 0.00000000000000 0.50000000000000 1 1 1 mag 0.0 
0.50000000000000 0.50000000000000 0.25000000000000 1 1 1 mag 0.0 
0.50000000000000 0.50000000000000 0.00000000000000 1 1 1 mag 0.0 
0.50000000000000 0.50000000000000 0.75000000000000 1 1 1 mag 0.0 
0.50000000000000 0.50000000000000 0.50000000000000 1 1 1 mag 0.0 

