ATOMIC_SPECIES
C   12.011        C.upf

NUMERICAL_ORBITAL
C_gga_8au_100Ry_2s2p1d.orb

LATTICE_CONSTANT
1.8897261258369282

LATTICE_VECTORS
2.46729126000000      0.00000000000000      0.00000000000000      
-1.2336456300000      2.13673690969500      0.00000000000000      
0.00000000000000      0.00000000000000      7.80307300000000      

ATOMIC_POSITIONS
Direct

C
0.00000000000000
4
0.00000000000000 0.00000000000000 0.25000000000000 1 1 1 mag 0.0 
0.00000000000000 0.00000000000000 0.75000000000000 1 1 1 mag 0.0 
0.33333333000000 0.66666667000000 0.25000000000000 1 1 1 mag 0.0 
0.66666667000000 0.33333333000000 0.75000000000000 1 1 1 mag 0.0 

