INPUT_PARAMETERS
# Parameters (1. General)
suffix                  ABACUS
calculation             md
symmetry                0
basis_type              lcao
ecutwfc                 100
kspacing                0.07 0.07 0.10

# Parameters (2. Files )
pseudo_dir              ./
orbital_dir             ./
dft_functional          PBE
stru_file               ./STRU
# kpoint_file             ./KPT

# Parameters (3. SCF iterations)
scf_nmax                100
scf_thr                 1e-7     # MD中适当放宽SCF收敛标准以加速计算

# Parameters (4. Solve KS equation)
ks_solver               genelpa
nspin                   1

# Parameters (5. Smearing)
smearing_method         gaussian
smearing_sigma          0.007    # ref: 0.00735Ry

# Parameters (6. Mixing)
mixing_type             broyden
mixing_beta             0.7

# Parameters (7. Molecular Dynamics)
md_type                 npt             # 系综选择: npt (恒定粒子数、压强、温度), 允许晶胞变化
md_thermostat           nhc             # 控温器: 选择经典的 Nose-Hoover chain
md_tfirst               300.0           # 目标温度 (单位: K), 设为室温
md_pmode                aniso           # 控压方式: aniso (各向异性), 适用于层状或各向异性体系
md_pfirst               0.0             # 目标压强 (单位: GPa)
md_dt                   1.0             # 时间步长 (单位: fs)
md_nstep                10000           # 模拟总步数。10000步即10 ps, 需要足够长以达到平衡和统计
md_dumpfreq             10              # 每10步输出一次log和轨迹文件
md_restart              1               # 开启断点续算功能

# Parameters (8. vdW Correction)
vdw_method              d3_bj

# Parameters (9. Calculation control)
cal_stress              1
cal_force               1
out_stru                1
out_chg                 0
out_md_log              1               # 每 md_dumpfreq 步输出能量、温度、压强等信息
out_md_traj             1               # 每 md_dumpfreq 步输出原子坐标轨迹

# Parameters (10. Running control)
# device                  gpu
precision               double
