ATOMIC_SPECIES
Ti  47.867        Ti_ONCV_PBE-1.2.upf
Al  26.9815385    Al.upf
C   12.011        C.upf

NUMERICAL_ORBITAL
Ti_gga_7au_100Ry_4s2p2d1f.orb
Al_gga_8au_100Ry_2s2p1d.orb
C_gga_8au_100Ry_2s2p1d.orb

LATTICE_CONSTANT
1.8897261258369282

LATTICE_VECTORS
3.0318304193         0.0000000000        0.0000000000
-1.5159152097        2.6256421631        0.0000000000
-0.0000000000       -0.0000000000       13.5747210872

ATOMIC_POSITIONS
Direct

Ti
0.00000000000000
4
0.6666666700        0.3333333300        0.5845071528 m 1 1 1
0.3333333300        0.6666666700        0.0845071528 m 1 1 1
0.3333333300        0.6666666700        0.4154928472 m 1 1 1
0.6666666700        0.3333333300        0.9154928472 m 1 1 1

Al
0.00000000000000
2
0.6666666700        0.3333333300        0.2500000000 m 1 1 1
0.3333333300        0.6666666700        0.7500000000 m 1 1 1

C
0.00000000000000
2
0.0000000000        0.0000000000        0.5000000000 m 1 1 1
0.0000000000        0.0000000000        0.0000000000 m 1 1 1

