ATOMIC_SPECIES
Al  26.9815385    Al.upf

NUMERICAL_ORBITAL
Al_gga_8au_100Ry_2s2p1d.orb

LATTICE_CONSTANT
1.8897261258369282

LATTICE_VECTORS
4.03892969000000      0.00000000000000      0.00000000000000      
0.00000000000000      4.03892969000000      0.00000000000000      
0.00000000000000      0.00000000000000      4.03892969000000      

ATOMIC_POSITIONS
Direct

Al
0.00000000000000
4
0.00000000000000 0.00000000000000 0.00000000000000 1 1 1 mag 0.0 
0.00000000000000 0.50000000000000 0.50000000000000 1 1 1 mag 0.0 
0.50000000000000 0.00000000000000 0.50000000000000 1 1 1 mag 0.0 
0.50000000000000 0.50000000000000 0.00000000000000 1 1 1 mag 0.0 

