ATOMIC_SPECIES
Ti  47.867        Ti_ONCV_PBE-1.2.upf
Al  26.9815385    Al.upf
C   12.011        C.upf

NUMERICAL_ORBITAL
Ti_gga_7au_100Ry_4s2p2d1f.orb
Al_gga_8au_100Ry_2s2p1d.orb
C_gga_8au_100Ry_2s2p1d.orb

LATTICE_CONSTANT
1.8897261258369282

LATTICE_VECTORS
12.1273216772000      0.00000000000000      0.00000000000000      
-6.0636608388000      10.5025686524000      0.00000000000000      
-0.0000000000000      -0.0000000000000      27.1494421744000      

ATOMIC_POSITIONS
Direct

Ti
0.00000000000000
128
0.16666666750000 0.08333333250000 0.29225357640000 1 1 1 mag 0.0 
0.08333333250000 0.16666666750000 0.04225357640000 1 1 1 mag 0.0 
0.08333333250000 0.16666666750000 0.20774642360000 1 1 1 mag 0.0 
0.16666666750000 0.08333333250000 0.45774642360000 1 1 1 mag 0.0 
0.16666666750000 0.08333333250000 0.79225357640000 1 1 1 mag 0.0 
0.08333333250000 0.16666666750000 0.54225357640000 1 1 1 mag 0.0 
0.08333333250000 0.16666666750000 0.70774642360000 1 1 1 mag 0.0 
0.16666666750000 0.08333333250000 0.95774642360000 1 1 1 mag 0.0 
0.16666666750000 0.33333333250000 0.29225357640000 1 1 1 mag 0.0 
0.08333333250000 0.41666666750000 0.04225357640000 1 1 1 mag 0.0 
0.08333333250000 0.41666666750000 0.20774642360000 1 1 1 mag 0.0 
0.16666666750000 0.33333333250000 0.45774642360000 1 1 1 mag 0.0 
0.16666666750000 0.33333333250000 0.79225357640000 1 1 1 mag 0.0 
0.08333333250000 0.41666666750000 0.54225357640000 1 1 1 mag 0.0 
0.08333333250000 0.41666666750000 0.70774642360000 1 1 1 mag 0.0 
0.16666666750000 0.33333333250000 0.95774642360000 1 1 1 mag 0.0 
0.16666666750000 0.58333333250000 0.29225357640000 1 1 1 mag 0.0 
0.08333333250000 0.66666666750000 0.04225357640000 1 1 1 mag 0.0 
0.08333333250000 0.66666666750000 0.20774642360000 1 1 1 mag 0.0 
0.16666666750000 0.58333333250000 0.45774642360000 1 1 1 mag 0.0 
0.16666666750000 0.58333333250000 0.79225357640000 1 1 1 mag 0.0 
0.08333333250000 0.66666666750000 0.54225357640000 1 1 1 mag 0.0 
0.08333333250000 0.66666666750000 0.70774642360000 1 1 1 mag 0.0 
0.16666666750000 0.58333333250000 0.95774642360000 1 1 1 mag 0.0 
0.16666666750000 0.83333333250000 0.29225357640000 1 1 1 mag 0.0 
0.08333333250000 0.91666666750000 0.04225357640000 1 1 1 mag 0.0 
0.08333333250000 0.91666666750000 0.20774642360000 1 1 1 mag 0.0 
0.16666666750000 0.83333333250000 0.45774642360000 1 1 1 mag 0.0 
0.16666666750000 0.83333333250000 0.79225357640000 1 1 1 mag 0.0 
0.08333333250000 0.91666666750000 0.54225357640000 1 1 1 mag 0.0 
0.08333333250000 0.91666666750000 0.70774642360000 1 1 1 mag 0.0 
0.16666666750000 0.83333333250000 0.95774642360000 1 1 1 mag 0.0 
0.41666666750000 0.08333333250000 0.29225357640000 1 1 1 mag 0.0 
0.33333333250000 0.16666666750000 0.04225357640000 1 1 1 mag 0.0 
0.33333333250000 0.16666666750000 0.20774642360000 1 1 1 mag 0.0 
0.41666666750000 0.08333333250000 0.45774642360000 1 1 1 mag 0.0 
0.41666666750000 0.08333333250000 0.79225357640000 1 1 1 mag 0.0 
0.33333333250000 0.16666666750000 0.54225357640000 1 1 1 mag 0.0 
0.33333333250000 0.16666666750000 0.70774642360000 1 1 1 mag 0.0 
0.41666666750000 0.08333333250000 0.95774642360000 1 1 1 mag 0.0 
0.41666666750000 0.33333333250000 0.29225357640000 1 1 1 mag 0.0 
0.33333333250000 0.41666666750000 0.04225357640000 1 1 1 mag 0.0 
0.33333333250000 0.41666666750000 0.20774642360000 1 1 1 mag 0.0 
0.41666666750000 0.33333333250000 0.45774642360000 1 1 1 mag 0.0 
0.41666666750000 0.33333333250000 0.79225357640000 1 1 1 mag 0.0 
0.33333333250000 0.41666666750000 0.54225357640000 1 1 1 mag 0.0 
0.33333333250000 0.41666666750000 0.70774642360000 1 1 1 mag 0.0 
0.41666666750000 0.33333333250000 0.95774642360000 1 1 1 mag 0.0 
0.41666666750000 0.58333333250000 0.29225357640000 1 1 1 mag 0.0 
0.33333333250000 0.66666666750000 0.04225357640000 1 1 1 mag 0.0 
0.33333333250000 0.66666666750000 0.20774642360000 1 1 1 mag 0.0 
0.41666666750000 0.58333333250000 0.45774642360000 1 1 1 mag 0.0 
0.41666666750000 0.58333333250000 0.79225357640000 1 1 1 mag 0.0 
0.33333333250000 0.66666666750000 0.54225357640000 1 1 1 mag 0.0 
0.33333333250000 0.66666666750000 0.70774642360000 1 1 1 mag 0.0 
0.41666666750000 0.58333333250000 0.95774642360000 1 1 1 mag 0.0 
0.41666666750000 0.83333333250000 0.29225357640000 1 1 1 mag 0.0 
0.33333333250000 0.91666666750000 0.04225357640000 1 1 1 mag 0.0 
0.33333333250000 0.91666666750000 0.20774642360000 1 1 1 mag 0.0 
0.41666666750000 0.83333333250000 0.45774642360000 1 1 1 mag 0.0 
0.41666666750000 0.83333333250000 0.79225357640000 1 1 1 mag 0.0 
0.33333333250000 0.91666666750000 0.54225357640000 1 1 1 mag 0.0 
0.33333333250000 0.91666666750000 0.70774642360000 1 1 1 mag 0.0 
0.41666666750000 0.83333333250000 0.95774642360000 1 1 1 mag 0.0 
0.66666666750000 0.08333333250000 0.29225357640000 1 1 1 mag 0.0 
0.58333333250000 0.16666666750000 0.04225357640000 1 1 1 mag 0.0 
0.58333333250000 0.16666666750000 0.20774642360000 1 1 1 mag 0.0 
0.66666666750000 0.08333333250000 0.45774642360000 1 1 1 mag 0.0 
0.66666666750000 0.08333333250000 0.79225357640000 1 1 1 mag 0.0 
0.58333333250000 0.16666666750000 0.54225357640000 1 1 1 mag 0.0 
0.58333333250000 0.16666666750000 0.70774642360000 1 1 1 mag 0.0 
0.66666666750000 0.08333333250000 0.95774642360000 1 1 1 mag 0.0 
0.66666666750000 0.33333333250000 0.29225357640000 1 1 1 mag 0.0 
0.58333333250000 0.41666666750000 0.04225357640000 1 1 1 mag 0.0 
0.58333333250000 0.41666666750000 0.20774642360000 1 1 1 mag 0.0 
0.66666666750000 0.33333333250000 0.45774642360000 1 1 1 mag 0.0 
0.66666666750000 0.33333333250000 0.79225357640000 1 1 1 mag 0.0 
0.58333333250000 0.41666666750000 0.54225357640000 1 1 1 mag 0.0 
0.58333333250000 0.41666666750000 0.70774642360000 1 1 1 mag 0.0 
0.66666666750000 0.33333333250000 0.95774642360000 1 1 1 mag 0.0 
0.66666666750000 0.58333333250000 0.29225357640000 1 1 1 mag 0.0 
0.58333333250000 0.66666666750000 0.04225357640000 1 1 1 mag 0.0 
0.58333333250000 0.66666666750000 0.20774642360000 1 1 1 mag 0.0 
0.66666666750000 0.58333333250000 0.45774642360000 1 1 1 mag 0.0 
0.66666666750000 0.58333333250000 0.79225357640000 1 1 1 mag 0.0 
0.58333333250000 0.66666666750000 0.54225357640000 1 1 1 mag 0.0 
0.58333333250000 0.66666666750000 0.70774642360000 1 1 1 mag 0.0 
0.66666666750000 0.58333333250000 0.95774642360000 1 1 1 mag 0.0 
0.66666666750000 0.83333333250000 0.29225357640000 1 1 1 mag 0.0 
0.58333333250000 0.91666666750000 0.04225357640000 1 1 1 mag 0.0 
0.58333333250000 0.91666666750000 0.20774642360000 1 1 1 mag 0.0 
0.66666666750000 0.83333333250000 0.45774642360000 1 1 1 mag 0.0 
0.66666666750000 0.83333333250000 0.79225357640000 1 1 1 mag 0.0 
0.58333333250000 0.91666666750000 0.54225357640000 1 1 1 mag 0.0 
0.58333333250000 0.91666666750000 0.70774642360000 1 1 1 mag 0.0 
0.66666666750000 0.83333333250000 0.95774642360000 1 1 1 mag 0.0 
0.91666666750000 0.08333333250000 0.29225357640000 1 1 1 mag 0.0 
0.83333333250000 0.16666666750000 0.04225357640000 1 1 1 mag 0.0 
0.83333333250000 0.16666666750000 0.20774642360000 1 1 1 mag 0.0 
0.91666666750000 0.08333333250000 0.45774642360000 1 1 1 mag 0.0 
0.91666666750000 0.08333333250000 0.79225357640000 1 1 1 mag 0.0 
0.83333333250000 0.16666666750000 0.54225357640000 1 1 1 mag 0.0 
0.83333333250000 0.16666666750000 0.70774642360000 1 1 1 mag 0.0 
0.91666666750000 0.08333333250000 0.95774642360000 1 1 1 mag 0.0 
0.91666666750000 0.33333333250000 0.29225357640000 1 1 1 mag 0.0 
0.83333333250000 0.41666666750000 0.04225357640000 1 1 1 mag 0.0 
0.83333333250000 0.41666666750000 0.20774642360000 1 1 1 mag 0.0 
0.91666666750000 0.33333333250000 0.45774642360000 1 1 1 mag 0.0 
0.91666666750000 0.33333333250000 0.79225357640000 1 1 1 mag 0.0 
0.83333333250000 0.41666666750000 0.54225357640000 1 1 1 mag 0.0 
0.83333333250000 0.41666666750000 0.70774642360000 1 1 1 mag 0.0 
0.91666666750000 0.33333333250000 0.95774642360000 1 1 1 mag 0.0 
0.91666666750000 0.58333333250000 0.29225357640000 1 1 1 mag 0.0 
0.83333333250000 0.66666666750000 0.04225357640000 1 1 1 mag 0.0 
0.83333333250000 0.66666666750000 0.20774642360000 1 1 1 mag 0.0 
0.91666666750000 0.58333333250000 0.45774642360000 1 1 1 mag 0.0 
0.91666666750000 0.58333333250000 0.79225357640000 1 1 1 mag 0.0 
0.83333333250000 0.66666666750000 0.54225357640000 1 1 1 mag 0.0 
0.83333333250000 0.66666666750000 0.70774642360000 1 1 1 mag 0.0 
0.91666666750000 0.58333333250000 0.95774642360000 1 1 1 mag 0.0 
0.91666666750000 0.83333333250000 0.29225357640000 1 1 1 mag 0.0 
0.83333333250000 0.91666666750000 0.04225357640000 1 1 1 mag 0.0 
0.83333333250000 0.91666666750000 0.20774642360000 1 1 1 mag 0.0 
0.91666666750000 0.83333333250000 0.45774642360000 1 1 1 mag 0.0 
0.91666666750000 0.83333333250000 0.79225357640000 1 1 1 mag 0.0 
0.83333333250000 0.91666666750000 0.54225357640000 1 1 1 mag 0.0 
0.83333333250000 0.91666666750000 0.70774642360000 1 1 1 mag 0.0 
0.91666666750000 0.83333333250000 0.95774642360000 1 1 1 mag 0.0 

Al
0.00000000000000
64
0.16666666750000 0.08333333250000 0.12500000000000 1 1 1 mag 0.0 
0.08333333250000 0.16666666750000 0.37500000000000 1 1 1 mag 0.0 
0.16666666750000 0.08333333250000 0.62500000000000 1 1 1 mag 0.0 
0.08333333250000 0.16666666750000 0.87500000000000 1 1 1 mag 0.0 
0.16666666750000 0.33333333250000 0.12500000000000 1 1 1 mag 0.0 
0.08333333250000 0.41666666750000 0.37500000000000 1 1 1 mag 0.0 
0.16666666750000 0.33333333250000 0.62500000000000 1 1 1 mag 0.0 
0.08333333250000 0.41666666750000 0.87500000000000 1 1 1 mag 0.0 
0.16666666750000 0.58333333250000 0.12500000000000 1 1 1 mag 0.0 
0.08333333250000 0.66666666750000 0.37500000000000 1 1 1 mag 0.0 
0.16666666750000 0.58333333250000 0.62500000000000 1 1 1 mag 0.0 
0.08333333250000 0.66666666750000 0.87500000000000 1 1 1 mag 0.0 
0.16666666750000 0.83333333250000 0.12500000000000 1 1 1 mag 0.0 
0.08333333250000 0.91666666750000 0.37500000000000 1 1 1 mag 0.0 
0.16666666750000 0.83333333250000 0.62500000000000 1 1 1 mag 0.0 
0.08333333250000 0.91666666750000 0.87500000000000 1 1 1 mag 0.0 
0.41666666750000 0.08333333250000 0.12500000000000 1 1 1 mag 0.0 
0.33333333250000 0.16666666750000 0.37500000000000 1 1 1 mag 0.0 
0.41666666750000 0.08333333250000 0.62500000000000 1 1 1 mag 0.0 
0.33333333250000 0.16666666750000 0.87500000000000 1 1 1 mag 0.0 
0.41666666750000 0.33333333250000 0.12500000000000 1 1 1 mag 0.0 
0.33333333250000 0.41666666750000 0.37500000000000 1 1 1 mag 0.0 
0.41666666750000 0.33333333250000 0.62500000000000 1 1 1 mag 0.0 
0.33333333250000 0.41666666750000 0.87500000000000 1 1 1 mag 0.0 
0.41666666750000 0.58333333250000 0.12500000000000 1 1 1 mag 0.0 
0.33333333250000 0.66666666750000 0.37500000000000 1 1 1 mag 0.0 
0.41666666750000 0.58333333250000 0.62500000000000 1 1 1 mag 0.0 
0.33333333250000 0.66666666750000 0.87500000000000 1 1 1 mag 0.0 
0.41666666750000 0.83333333250000 0.12500000000000 1 1 1 mag 0.0 
0.33333333250000 0.91666666750000 0.37500000000000 1 1 1 mag 0.0 
0.41666666750000 0.83333333250000 0.62500000000000 1 1 1 mag 0.0 
0.33333333250000 0.91666666750000 0.87500000000000 1 1 1 mag 0.0 
0.66666666750000 0.08333333250000 0.12500000000000 1 1 1 mag 0.0 
0.58333333250000 0.16666666750000 0.37500000000000 1 1 1 mag 0.0 
0.66666666750000 0.08333333250000 0.62500000000000 1 1 1 mag 0.0 
0.58333333250000 0.16666666750000 0.87500000000000 1 1 1 mag 0.0 
0.66666666750000 0.33333333250000 0.12500000000000 1 1 1 mag 0.0 
0.58333333250000 0.41666666750000 0.37500000000000 1 1 1 mag 0.0 
0.66666666750000 0.33333333250000 0.62500000000000 1 1 1 mag 0.0 
0.58333333250000 0.41666666750000 0.87500000000000 1 1 1 mag 0.0 
0.66666666750000 0.58333333250000 0.12500000000000 1 1 1 mag 0.0 
0.58333333250000 0.66666666750000 0.37500000000000 1 1 1 mag 0.0 
0.66666666750000 0.58333333250000 0.62500000000000 1 1 1 mag 0.0 
0.58333333250000 0.66666666750000 0.87500000000000 1 1 1 mag 0.0 
0.66666666750000 0.83333333250000 0.12500000000000 1 1 1 mag 0.0 
0.58333333250000 0.91666666750000 0.37500000000000 1 1 1 mag 0.0 
0.66666666750000 0.83333333250000 0.62500000000000 1 1 1 mag 0.0 
0.58333333250000 0.91666666750000 0.87500000000000 1 1 1 mag 0.0 
0.91666666750000 0.08333333250000 0.12500000000000 1 1 1 mag 0.0 
0.83333333250000 0.16666666750000 0.37500000000000 1 1 1 mag 0.0 
0.91666666750000 0.08333333250000 0.62500000000000 1 1 1 mag 0.0 
0.83333333250000 0.16666666750000 0.87500000000000 1 1 1 mag 0.0 
0.91666666750000 0.33333333250000 0.12500000000000 1 1 1 mag 0.0 
0.83333333250000 0.41666666750000 0.37500000000000 1 1 1 mag 0.0 
0.91666666750000 0.33333333250000 0.62500000000000 1 1 1 mag 0.0 
0.83333333250000 0.41666666750000 0.87500000000000 1 1 1 mag 0.0 
0.91666666750000 0.58333333250000 0.12500000000000 1 1 1 mag 0.0 
0.83333333250000 0.66666666750000 0.37500000000000 1 1 1 mag 0.0 
0.91666666750000 0.58333333250000 0.62500000000000 1 1 1 mag 0.0 
0.83333333250000 0.66666666750000 0.87500000000000 1 1 1 mag 0.0 
0.91666666750000 0.83333333250000 0.12500000000000 1 1 1 mag 0.0 
0.83333333250000 0.91666666750000 0.37500000000000 1 1 1 mag 0.0 
0.91666666750000 0.83333333250000 0.62500000000000 1 1 1 mag 0.0 
0.83333333250000 0.91666666750000 0.87500000000000 1 1 1 mag 0.0 

C
0.00000000000000
64
0.00000000000000 0.00000000000000 0.25000000000000 1 1 1 mag 0.0 
0.00000000000000 0.00000000000000 0.00000000000000 1 1 1 mag 0.0 
0.00000000000000 0.00000000000000 0.75000000000000 1 1 1 mag 0.0 
0.00000000000000 0.00000000000000 0.50000000000000 1 1 1 mag 0.0 
0.00000000000000 0.25000000000000 0.25000000000000 1 1 1 mag 0.0 
0.00000000000000 0.25000000000000 0.00000000000000 1 1 1 mag 0.0 
0.00000000000000 0.25000000000000 0.75000000000000 1 1 1 mag 0.0 
0.00000000000000 0.25000000000000 0.50000000000000 1 1 1 mag 0.0 
0.00000000000000 0.50000000000000 0.25000000000000 1 1 1 mag 0.0 
0.00000000000000 0.50000000000000 0.00000000000000 1 1 1 mag 0.0 
0.00000000000000 0.50000000000000 0.75000000000000 1 1 1 mag 0.0 
0.00000000000000 0.50000000000000 0.50000000000000 1 1 1 mag 0.0 
0.00000000000000 0.75000000000000 0.25000000000000 1 1 1 mag 0.0 
0.00000000000000 0.75000000000000 0.00000000000000 1 1 1 mag 0.0 
0.00000000000000 0.75000000000000 0.75000000000000 1 1 1 mag 0.0 
0.00000000000000 0.75000000000000 0.50000000000000 1 1 1 mag 0.0 
0.25000000000000 0.00000000000000 0.25000000000000 1 1 1 mag 0.0 
0.25000000000000 0.00000000000000 0.00000000000000 1 1 1 mag 0.0 
0.25000000000000 0.00000000000000 0.75000000000000 1 1 1 mag 0.0 
0.25000000000000 0.00000000000000 0.50000000000000 1 1 1 mag 0.0 
0.25000000000000 0.25000000000000 0.25000000000000 1 1 1 mag 0.0 
0.25000000000000 0.25000000000000 0.00000000000000 1 1 1 mag 0.0 
0.25000000000000 0.25000000000000 0.75000000000000 1 1 1 mag 0.0 
0.25000000000000 0.25000000000000 0.50000000000000 1 1 1 mag 0.0 
0.25000000000000 0.50000000000000 0.25000000000000 1 1 1 mag 0.0 
0.25000000000000 0.50000000000000 0.00000000000000 1 1 1 mag 0.0 
0.25000000000000 0.50000000000000 0.75000000000000 1 1 1 mag 0.0 
0.25000000000000 0.50000000000000 0.50000000000000 1 1 1 mag 0.0 
0.25000000000000 0.75000000000000 0.25000000000000 1 1 1 mag 0.0 
0.25000000000000 0.75000000000000 0.00000000000000 1 1 1 mag 0.0 
0.25000000000000 0.75000000000000 0.75000000000000 1 1 1 mag 0.0 
0.25000000000000 0.75000000000000 0.50000000000000 1 1 1 mag 0.0 
0.50000000000000 0.00000000000000 0.25000000000000 1 1 1 mag 0.0 
0.50000000000000 0.00000000000000 0.00000000000000 1 1 1 mag 0.0 
0.50000000000000 0.00000000000000 0.75000000000000 1 1 1 mag 0.0 
0.50000000000000 0.00000000000000 0.50000000000000 1 1 1 mag 0.0 
0.50000000000000 0.25000000000000 0.25000000000000 1 1 1 mag 0.0 
0.50000000000000 0.25000000000000 0.00000000000000 1 1 1 mag 0.0 
0.50000000000000 0.25000000000000 0.75000000000000 1 1 1 mag 0.0 
0.50000000000000 0.25000000000000 0.50000000000000 1 1 1 mag 0.0 
0.50000000000000 0.50000000000000 0.25000000000000 1 1 1 mag 0.0 
0.50000000000000 0.50000000000000 0.00000000000000 1 1 1 mag 0.0 
0.50000000000000 0.50000000000000 0.75000000000000 1 1 1 mag 0.0 
0.50000000000000 0.50000000000000 0.50000000000000 1 1 1 mag 0.0 
0.50000000000000 0.75000000000000 0.25000000000000 1 1 1 mag 0.0 
0.50000000000000 0.75000000000000 0.00000000000000 1 1 1 mag 0.0 
0.50000000000000 0.75000000000000 0.75000000000000 1 1 1 mag 0.0 
0.50000000000000 0.75000000000000 0.50000000000000 1 1 1 mag 0.0 
0.75000000000000 0.00000000000000 0.25000000000000 1 1 1 mag 0.0 
0.75000000000000 0.00000000000000 0.00000000000000 1 1 1 mag 0.0 
0.75000000000000 0.00000000000000 0.75000000000000 1 1 1 mag 0.0 
0.75000000000000 0.00000000000000 0.50000000000000 1 1 1 mag 0.0 
0.75000000000000 0.25000000000000 0.25000000000000 1 1 1 mag 0.0 
0.75000000000000 0.25000000000000 0.00000000000000 1 1 1 mag 0.0 
0.75000000000000 0.25000000000000 0.75000000000000 1 1 1 mag 0.0 
0.75000000000000 0.25000000000000 0.50000000000000 1 1 1 mag 0.0 
0.75000000000000 0.50000000000000 0.25000000000000 1 1 1 mag 0.0 
0.75000000000000 0.50000000000000 0.00000000000000 1 1 1 mag 0.0 
0.75000000000000 0.50000000000000 0.75000000000000 1 1 1 mag 0.0 
0.75000000000000 0.50000000000000 0.50000000000000 1 1 1 mag 0.0 
0.75000000000000 0.75000000000000 0.25000000000000 1 1 1 mag 0.0 
0.75000000000000 0.75000000000000 0.00000000000000 1 1 1 mag 0.0 
0.75000000000000 0.75000000000000 0.75000000000000 1 1 1 mag 0.0 
0.75000000000000 0.75000000000000 0.50000000000000 1 1 1 mag 0.0 

