ATOMIC_SPECIES
Ti  47.867        Ti_ONCV_PBE-1.2.upf
Al  26.9815385    Al.upf
C   12.011        C.upf

NUMERICAL_ORBITAL
Ti_gga_7au_100Ry_4s2p2d1f.orb
Al_gga_8au_100Ry_2s2p1d.orb
C_gga_8au_100Ry_2s2p1d.orb

LATTICE_CONSTANT
1.8897261258369282

LATTICE_VECTORS
3.06908749000000      0.00000000000000      0.00000000000000      
-1.5345437450000      2.65790773277700      0.00000000000000      
0.00000000000000      0.00000000000000      13.7363660000000      

ATOMIC_POSITIONS
Direct

Ti
0.00000000000000
4
0.66666667000000 0.33333333000000 0.58348600000000 1 1 1 mag 0.0 
0.33333333000000 0.66666667000000 0.08348600000000 1 1 1 mag 0.0 
0.33333333000000 0.66666667000000 0.41651400000000 1 1 1 mag 0.0 
0.66666667000000 0.33333333000000 0.91651400000000 1 1 1 mag 0.0 

Al
0.00000000000000
2
0.66666667000000 0.33333333000000 0.25000000000000 1 1 1 mag 0.0 
0.33333333000000 0.66666667000000 0.75000000000000 1 1 1 mag 0.0 

C
0.00000000000000
2
0.00000000000000 0.00000000000000 0.50000000000000 1 1 1 mag 0.0 
0.00000000000000 0.00000000000000 0.00000000000000 1 1 1 mag 0.0 

