ATOMIC_SPECIES
Ti  47.867        Ti_ONCV_PBE-1.2.upf

NUMERICAL_ORBITAL
Ti_gga_7au_100Ry_4s2p2d1f.orb

LATTICE_CONSTANT
1.8897261258369282

LATTICE_VECTORS
2.93381380000000      0.00000000000000      0.00000000000000
-1.4669069000000      2.54075728077300      0.00000000000000
0.00000000000000      0.00000000000000      4.65700900000000

ATOMIC_POSITIONS
Direct

Ti
0.00000000000000
2
0.66666667000000 0.33333333000000 0.75000000000000 1 1 1 mag 0.0
0.33333333000000 0.66666667000000 0.25000000000000 1 1 1 mag 0.0

