ATOMIC_SPECIES
Ti  47.867        Ti_ONCV_PBE-1.2.upf
Al  26.9815385    Al.upf
C   12.011        C.upf

NUMERICAL_ORBITAL
Ti_gga_7au_100Ry_4s2p2d1f.orb
Al_gga_8au_100Ry_2s2p1d.orb
C_gga_8au_100Ry_2s2p1d.orb

LATTICE_CONSTANT
1.8897261258369282

LATTICE_VECTORS
9.20726247000000      0.00000000000000      0.00000000000000      
-4.6036312350000      7.97372319833100      0.00000000000000      
0.00000000000000      0.00000000000000      41.2090980000000      

ATOMIC_POSITIONS
Direct

Ti
0.00000000000000
108
0.22222222333300 0.11111111000000 0.19449533333300 1 1 1 mag 0.0 
0.11111111000000 0.22222222333300 0.02782866666700 1 1 1 mag 0.0 
0.11111111000000 0.22222222333300 0.13883800000000 1 1 1 mag 0.0 
0.22222222333300 0.11111111000000 0.30550466666700 1 1 1 mag 0.0 
0.22222222333300 0.11111111000000 0.52782866666700 1 1 1 mag 0.0 
0.11111111000000 0.22222222333300 0.36116200000000 1 1 1 mag 0.0 
0.11111111000000 0.22222222333300 0.47217133333300 1 1 1 mag 0.0 
0.22222222333300 0.11111111000000 0.63883800000000 1 1 1 mag 0.0 
0.22222222333300 0.11111111000000 0.86116200000000 1 1 1 mag 0.0 
0.11111111000000 0.22222222333300 0.69449533333300 1 1 1 mag 0.0 
0.11111111000000 0.22222222333300 0.80550466666700 1 1 1 mag 0.0 
0.22222222333300 0.11111111000000 0.97217133333300 1 1 1 mag 0.0 
0.22222222333300 0.44444444333300 0.19449533333300 1 1 1 mag 0.0 
0.11111111000000 0.55555555666700 0.02782866666700 1 1 1 mag 0.0 
0.11111111000000 0.55555555666700 0.13883800000000 1 1 1 mag 0.0 
0.22222222333300 0.44444444333300 0.30550466666700 1 1 1 mag 0.0 
0.22222222333300 0.44444444333300 0.52782866666700 1 1 1 mag 0.0 
0.11111111000000 0.55555555666700 0.36116200000000 1 1 1 mag 0.0 
0.11111111000000 0.55555555666700 0.47217133333300 1 1 1 mag 0.0 
0.22222222333300 0.44444444333300 0.63883800000000 1 1 1 mag 0.0 
0.22222222333300 0.44444444333300 0.86116200000000 1 1 1 mag 0.0 
0.11111111000000 0.55555555666700 0.69449533333300 1 1 1 mag 0.0 
0.11111111000000 0.55555555666700 0.80550466666700 1 1 1 mag 0.0 
0.22222222333300 0.44444444333300 0.97217133333300 1 1 1 mag 0.0 
0.22222222333300 0.77777777666700 0.19449533333300 1 1 1 mag 0.0 
0.11111111000000 0.88888889000000 0.02782866666700 1 1 1 mag 0.0 
0.11111111000000 0.88888889000000 0.13883800000000 1 1 1 mag 0.0 
0.22222222333300 0.77777777666700 0.30550466666700 1 1 1 mag 0.0 
0.22222222333300 0.77777777666700 0.52782866666700 1 1 1 mag 0.0 
0.11111111000000 0.88888889000000 0.36116200000000 1 1 1 mag 0.0 
0.11111111000000 0.88888889000000 0.47217133333300 1 1 1 mag 0.0 
0.22222222333300 0.77777777666700 0.63883800000000 1 1 1 mag 0.0 
0.22222222333300 0.77777777666700 0.86116200000000 1 1 1 mag 0.0 
0.11111111000000 0.88888889000000 0.69449533333300 1 1 1 mag 0.0 
0.11111111000000 0.88888889000000 0.80550466666700 1 1 1 mag 0.0 
0.22222222333300 0.77777777666700 0.97217133333300 1 1 1 mag 0.0 
0.55555555666700 0.11111111000000 0.19449533333300 1 1 1 mag 0.0 
0.44444444333300 0.22222222333300 0.02782866666700 1 1 1 mag 0.0 
0.44444444333300 0.22222222333300 0.13883800000000 1 1 1 mag 0.0 
0.55555555666700 0.11111111000000 0.30550466666700 1 1 1 mag 0.0 
0.55555555666700 0.11111111000000 0.52782866666700 1 1 1 mag 0.0 
0.44444444333300 0.22222222333300 0.36116200000000 1 1 1 mag 0.0 
0.44444444333300 0.22222222333300 0.47217133333300 1 1 1 mag 0.0 
0.55555555666700 0.11111111000000 0.63883800000000 1 1 1 mag 0.0 
0.55555555666700 0.11111111000000 0.86116200000000 1 1 1 mag 0.0 
0.44444444333300 0.22222222333300 0.69449533333300 1 1 1 mag 0.0 
0.44444444333300 0.22222222333300 0.80550466666700 1 1 1 mag 0.0 
0.55555555666700 0.11111111000000 0.97217133333300 1 1 1 mag 0.0 
0.55555555666700 0.44444444333300 0.19449533333300 1 1 1 mag 0.0 
0.44444444333300 0.55555555666700 0.02782866666700 1 1 1 mag 0.0 
0.44444444333300 0.55555555666700 0.13883800000000 1 1 1 mag 0.0 
0.55555555666700 0.44444444333300 0.30550466666700 1 1 1 mag 0.0 
0.55555555666700 0.44444444333300 0.52782866666700 1 1 1 mag 0.0 
0.44444444333300 0.55555555666700 0.36116200000000 1 1 1 mag 0.0 
0.44444444333300 0.55555555666700 0.47217133333300 1 1 1 mag 0.0 
0.55555555666700 0.44444444333300 0.63883800000000 1 1 1 mag 0.0 
0.55555555666700 0.44444444333300 0.86116200000000 1 1 1 mag 0.0 
0.44444444333300 0.55555555666700 0.69449533333300 1 1 1 mag 0.0 
0.44444444333300 0.55555555666700 0.80550466666700 1 1 1 mag 0.0 
0.55555555666700 0.44444444333300 0.97217133333300 1 1 1 mag 0.0 
0.55555555666700 0.77777777666700 0.19449533333300 1 1 1 mag 0.0 
0.44444444333300 0.88888889000000 0.02782866666700 1 1 1 mag 0.0 
0.44444444333300 0.88888889000000 0.13883800000000 1 1 1 mag 0.0 
0.55555555666700 0.77777777666700 0.30550466666700 1 1 1 mag 0.0 
0.55555555666700 0.77777777666700 0.52782866666700 1 1 1 mag 0.0 
0.44444444333300 0.88888889000000 0.36116200000000 1 1 1 mag 0.0 
0.44444444333300 0.88888889000000 0.47217133333300 1 1 1 mag 0.0 
0.55555555666700 0.77777777666700 0.63883800000000 1 1 1 mag 0.0 
0.55555555666700 0.77777777666700 0.86116200000000 1 1 1 mag 0.0 
0.44444444333300 0.88888889000000 0.69449533333300 1 1 1 mag 0.0 
0.44444444333300 0.88888889000000 0.80550466666700 1 1 1 mag 0.0 
0.55555555666700 0.77777777666700 0.97217133333300 1 1 1 mag 0.0 
0.88888889000000 0.11111111000000 0.19449533333300 1 1 1 mag 0.0 
0.77777777666700 0.22222222333300 0.02782866666700 1 1 1 mag 0.0 
0.77777777666700 0.22222222333300 0.13883800000000 1 1 1 mag 0.0 
0.88888889000000 0.11111111000000 0.30550466666700 1 1 1 mag 0.0 
0.88888889000000 0.11111111000000 0.52782866666700 1 1 1 mag 0.0 
0.77777777666700 0.22222222333300 0.36116200000000 1 1 1 mag 0.0 
0.77777777666700 0.22222222333300 0.47217133333300 1 1 1 mag 0.0 
0.88888889000000 0.11111111000000 0.63883800000000 1 1 1 mag 0.0 
0.88888889000000 0.11111111000000 0.86116200000000 1 1 1 mag 0.0 
0.77777777666700 0.22222222333300 0.69449533333300 1 1 1 mag 0.0 
0.77777777666700 0.22222222333300 0.80550466666700 1 1 1 mag 0.0 
0.88888889000000 0.11111111000000 0.97217133333300 1 1 1 mag 0.0 
0.88888889000000 0.44444444333300 0.19449533333300 1 1 1 mag 0.0 
0.77777777666700 0.55555555666700 0.02782866666700 1 1 1 mag 0.0 
0.77777777666700 0.55555555666700 0.13883800000000 1 1 1 mag 0.0 
0.88888889000000 0.44444444333300 0.30550466666700 1 1 1 mag 0.0 
0.88888889000000 0.44444444333300 0.52782866666700 1 1 1 mag 0.0 
0.77777777666700 0.55555555666700 0.36116200000000 1 1 1 mag 0.0 
0.77777777666700 0.55555555666700 0.47217133333300 1 1 1 mag 0.0 
0.88888889000000 0.44444444333300 0.63883800000000 1 1 1 mag 0.0 
0.88888889000000 0.44444444333300 0.86116200000000 1 1 1 mag 0.0 
0.77777777666700 0.55555555666700 0.69449533333300 1 1 1 mag 0.0 
0.77777777666700 0.55555555666700 0.80550466666700 1 1 1 mag 0.0 
0.88888889000000 0.44444444333300 0.97217133333300 1 1 1 mag 0.0 
0.88888889000000 0.77777777666700 0.19449533333300 1 1 1 mag 0.0 
0.77777777666700 0.88888889000000 0.02782866666700 1 1 1 mag 0.0 
0.77777777666700 0.88888889000000 0.13883800000000 1 1 1 mag 0.0 
0.88888889000000 0.77777777666700 0.30550466666700 1 1 1 mag 0.0 
0.88888889000000 0.77777777666700 0.52782866666700 1 1 1 mag 0.0 
0.77777777666700 0.88888889000000 0.36116200000000 1 1 1 mag 0.0 
0.77777777666700 0.88888889000000 0.47217133333300 1 1 1 mag 0.0 
0.88888889000000 0.77777777666700 0.63883800000000 1 1 1 mag 0.0 
0.88888889000000 0.77777777666700 0.86116200000000 1 1 1 mag 0.0 
0.77777777666700 0.88888889000000 0.69449533333300 1 1 1 mag 0.0 
0.77777777666700 0.88888889000000 0.80550466666700 1 1 1 mag 0.0 
0.88888889000000 0.77777777666700 0.97217133333300 1 1 1 mag 0.0 

Al
0.00000000000000
54
0.22222222333300 0.11111111000000 0.08333333333300 1 1 1 mag 0.0 
0.11111111000000 0.22222222333300 0.25000000000000 1 1 1 mag 0.0 
0.22222222333300 0.11111111000000 0.41666666666700 1 1 1 mag 0.0 
0.11111111000000 0.22222222333300 0.58333333333300 1 1 1 mag 0.0 
0.22222222333300 0.11111111000000 0.75000000000000 1 1 1 mag 0.0 
0.11111111000000 0.22222222333300 0.91666666666700 1 1 1 mag 0.0 
0.22222222333300 0.44444444333300 0.08333333333300 1 1 1 mag 0.0 
0.11111111000000 0.55555555666700 0.25000000000000 1 1 1 mag 0.0 
0.22222222333300 0.44444444333300 0.41666666666700 1 1 1 mag 0.0 
0.11111111000000 0.55555555666700 0.58333333333300 1 1 1 mag 0.0 
0.22222222333300 0.44444444333300 0.75000000000000 1 1 1 mag 0.0 
0.11111111000000 0.55555555666700 0.91666666666700 1 1 1 mag 0.0 
0.22222222333300 0.77777777666700 0.08333333333300 1 1 1 mag 0.0 
0.11111111000000 0.88888889000000 0.25000000000000 1 1 1 mag 0.0 
0.22222222333300 0.77777777666700 0.41666666666700 1 1 1 mag 0.0 
0.11111111000000 0.88888889000000 0.58333333333300 1 1 1 mag 0.0 
0.22222222333300 0.77777777666700 0.75000000000000 1 1 1 mag 0.0 
0.11111111000000 0.88888889000000 0.91666666666700 1 1 1 mag 0.0 
0.55555555666700 0.11111111000000 0.08333333333300 1 1 1 mag 0.0 
0.44444444333300 0.22222222333300 0.25000000000000 1 1 1 mag 0.0 
0.55555555666700 0.11111111000000 0.41666666666700 1 1 1 mag 0.0 
0.44444444333300 0.22222222333300 0.58333333333300 1 1 1 mag 0.0 
0.55555555666700 0.11111111000000 0.75000000000000 1 1 1 mag 0.0 
0.44444444333300 0.22222222333300 0.91666666666700 1 1 1 mag 0.0 
0.55555555666700 0.44444444333300 0.08333333333300 1 1 1 mag 0.0 
0.44444444333300 0.55555555666700 0.25000000000000 1 1 1 mag 0.0 
0.55555555666700 0.44444444333300 0.41666666666700 1 1 1 mag 0.0 
0.44444444333300 0.55555555666700 0.58333333333300 1 1 1 mag 0.0 
0.55555555666700 0.44444444333300 0.75000000000000 1 1 1 mag 0.0 
0.44444444333300 0.55555555666700 0.91666666666700 1 1 1 mag 0.0 
0.55555555666700 0.77777777666700 0.08333333333300 1 1 1 mag 0.0 
0.44444444333300 0.88888889000000 0.25000000000000 1 1 1 mag 0.0 
0.55555555666700 0.77777777666700 0.41666666666700 1 1 1 mag 0.0 
0.44444444333300 0.88888889000000 0.58333333333300 1 1 1 mag 0.0 
0.55555555666700 0.77777777666700 0.75000000000000 1 1 1 mag 0.0 
0.44444444333300 0.88888889000000 0.91666666666700 1 1 1 mag 0.0 
0.88888889000000 0.11111111000000 0.08333333333300 1 1 1 mag 0.0 
0.77777777666700 0.22222222333300 0.25000000000000 1 1 1 mag 0.0 
0.88888889000000 0.11111111000000 0.41666666666700 1 1 1 mag 0.0 
0.77777777666700 0.22222222333300 0.58333333333300 1 1 1 mag 0.0 
0.88888889000000 0.11111111000000 0.75000000000000 1 1 1 mag 0.0 
0.77777777666700 0.22222222333300 0.91666666666700 1 1 1 mag 0.0 
0.88888889000000 0.44444444333300 0.08333333333300 1 1 1 mag 0.0 
0.77777777666700 0.55555555666700 0.25000000000000 1 1 1 mag 0.0 
0.88888889000000 0.44444444333300 0.41666666666700 1 1 1 mag 0.0 
0.77777777666700 0.55555555666700 0.58333333333300 1 1 1 mag 0.0 
0.88888889000000 0.44444444333300 0.75000000000000 1 1 1 mag 0.0 
0.77777777666700 0.55555555666700 0.91666666666700 1 1 1 mag 0.0 
0.88888889000000 0.77777777666700 0.08333333333300 1 1 1 mag 0.0 
0.77777777666700 0.88888889000000 0.25000000000000 1 1 1 mag 0.0 
0.88888889000000 0.77777777666700 0.41666666666700 1 1 1 mag 0.0 
0.77777777666700 0.88888889000000 0.58333333333300 1 1 1 mag 0.0 
0.88888889000000 0.77777777666700 0.75000000000000 1 1 1 mag 0.0 
0.77777777666700 0.88888889000000 0.91666666666700 1 1 1 mag 0.0 

C
0.00000000000000
54
0.00000000000000 0.00000000000000 0.16666666666700 1 1 1 mag 0.0 
0.00000000000000 0.00000000000000 0.00000000000000 1 1 1 mag 0.0 
0.00000000000000 0.00000000000000 0.50000000000000 1 1 1 mag 0.0 
0.00000000000000 0.00000000000000 0.33333333333300 1 1 1 mag 0.0 
0.00000000000000 0.00000000000000 0.83333333333300 1 1 1 mag 0.0 
0.00000000000000 0.00000000000000 0.66666666666700 1 1 1 mag 0.0 
0.00000000000000 0.33333333333300 0.16666666666700 1 1 1 mag 0.0 
0.00000000000000 0.33333333333300 0.00000000000000 1 1 1 mag 0.0 
0.00000000000000 0.33333333333300 0.50000000000000 1 1 1 mag 0.0 
0.00000000000000 0.33333333333300 0.33333333333300 1 1 1 mag 0.0 
0.00000000000000 0.33333333333300 0.83333333333300 1 1 1 mag 0.0 
0.00000000000000 0.33333333333300 0.66666666666700 1 1 1 mag 0.0 
0.00000000000000 0.66666666666700 0.16666666666700 1 1 1 mag 0.0 
0.00000000000000 0.66666666666700 0.00000000000000 1 1 1 mag 0.0 
0.00000000000000 0.66666666666700 0.50000000000000 1 1 1 mag 0.0 
0.00000000000000 0.66666666666700 0.33333333333300 1 1 1 mag 0.0 
0.00000000000000 0.66666666666700 0.83333333333300 1 1 1 mag 0.0 
0.00000000000000 0.66666666666700 0.66666666666700 1 1 1 mag 0.0 
0.33333333333300 0.00000000000000 0.16666666666700 1 1 1 mag 0.0 
0.33333333333300 0.00000000000000 0.00000000000000 1 1 1 mag 0.0 
0.33333333333300 0.00000000000000 0.50000000000000 1 1 1 mag 0.0 
0.33333333333300 0.00000000000000 0.33333333333300 1 1 1 mag 0.0 
0.33333333333300 0.00000000000000 0.83333333333300 1 1 1 mag 0.0 
0.33333333333300 0.00000000000000 0.66666666666700 1 1 1 mag 0.0 
0.33333333333300 0.33333333333300 0.16666666666700 1 1 1 mag 0.0 
0.33333333333300 0.33333333333300 0.00000000000000 1 1 1 mag 0.0 
0.33333333333300 0.33333333333300 0.50000000000000 1 1 1 mag 0.0 
0.33333333333300 0.33333333333300 0.33333333333300 1 1 1 mag 0.0 
0.33333333333300 0.33333333333300 0.83333333333300 1 1 1 mag 0.0 
0.33333333333300 0.33333333333300 0.66666666666700 1 1 1 mag 0.0 
0.33333333333300 0.66666666666700 0.16666666666700 1 1 1 mag 0.0 
0.33333333333300 0.66666666666700 0.00000000000000 1 1 1 mag 0.0 
0.33333333333300 0.66666666666700 0.50000000000000 1 1 1 mag 0.0 
0.33333333333300 0.66666666666700 0.33333333333300 1 1 1 mag 0.0 
0.33333333333300 0.66666666666700 0.83333333333300 1 1 1 mag 0.0 
0.33333333333300 0.66666666666700 0.66666666666700 1 1 1 mag 0.0 
0.66666666666700 0.00000000000000 0.16666666666700 1 1 1 mag 0.0 
0.66666666666700 0.00000000000000 0.00000000000000 1 1 1 mag 0.0 
0.66666666666700 0.00000000000000 0.50000000000000 1 1 1 mag 0.0 
0.66666666666700 0.00000000000000 0.33333333333300 1 1 1 mag 0.0 
0.66666666666700 0.00000000000000 0.83333333333300 1 1 1 mag 0.0 
0.66666666666700 0.00000000000000 0.66666666666700 1 1 1 mag 0.0 
0.66666666666700 0.33333333333300 0.16666666666700 1 1 1 mag 0.0 
0.66666666666700 0.33333333333300 0.00000000000000 1 1 1 mag 0.0 
0.66666666666700 0.33333333333300 0.50000000000000 1 1 1 mag 0.0 
0.66666666666700 0.33333333333300 0.33333333333300 1 1 1 mag 0.0 
0.66666666666700 0.33333333333300 0.83333333333300 1 1 1 mag 0.0 
0.66666666666700 0.33333333333300 0.66666666666700 1 1 1 mag 0.0 
0.66666666666700 0.66666666666700 0.16666666666700 1 1 1 mag 0.0 
0.66666666666700 0.66666666666700 0.00000000000000 1 1 1 mag 0.0 
0.66666666666700 0.66666666666700 0.50000000000000 1 1 1 mag 0.0 
0.66666666666700 0.66666666666700 0.33333333333300 1 1 1 mag 0.0 
0.66666666666700 0.66666666666700 0.83333333333300 1 1 1 mag 0.0 
0.66666666666700 0.66666666666700 0.66666666666700 1 1 1 mag 0.0 

