INPUT_PARAMETERS
# Parameters (1. General)
suffix                  ABACUS
calculation             cell-relax  # 修改为 cell-relax 来优化晶胞
symmetry                1
basis_type              lcao
ecutwfc                 100
kspacing                0.07 0.07 0.10

# Parameters (2. Files )
pseudo_dir              ./
orbital_dir             ./
dft_functional          PBE
stru_file               ./STRU
# kpoint_file             ./KPT

# Parameters (3. SCF iterations)
scf_nmax                100
scf_thr                 1e-8

# Parameters (4. Solve KS equation)
ks_solver               genelpa
nspin                   1

# Parameters (5. Smearing)
smearing_method         gaussian
smearing_sigma          0.007    # ref: 0.00735Ry

# Parameters (6. Mixing)
mixing_type             broyden
mixing_beta             0.7
mixing_gg0              0

# Parameters (7.Relaxation)
force_thr_ev            0.01     # 原子力收敛阈值
stress_thr              0.5      # 内应力收敛阈值

# Parameters (8. Calculation control)
cal_stress              1
cal_force               1
out_stru                1
out_chg                 0

# Parameters (9. Running control)
# device                  gpu
precision               double
